c "source: networkx.gnm_random_graph()"
p edge 30 50
e 1 28
e 1 15
e 1 12
e 2 22
e 2 25
e 2 18
e 2 17
e 3 27
e 3 21
e 3 6
e 3 14
e 4 13
e 5 20
e 5 17
e 5 9
e 5 25
e 6 13
e 6 21
e 6 26
e 6 9
e 6 8
e 7 10
e 7 25
e 8 30
e 8 16
e 8 21
e 9 23
e 9 27
e 9 12
e 9 16
e 10 25
e 10 15
e 11 18
e 11 20
e 12 15
e 12 29
e 12 16
e 14 25
e 14 24
e 15 23
e 16 21
e 17 22
e 17 29
e 19 21
e 20 27
e 21 27
e 23 27
e 24 30
e 26 30
e 27 28
